20 380
0 1 15.0
0 2 27.0
0 3 69.2
0 4 70.6
0 5 60.7
0 6 14.1
0 7 47.5
0 8 22.0
0 9 71.0
0 10 74.2
0 11 51.2
0 12 43.7
0 13 22.8
0 14 46.8
0 15 37.7
0 16 24.3
0 17 69.3
0 18 56.9
0 19 76.9
1 2 23.8
1 3 56.6
1 4 57.0
1 5 46.1
1 6 1.0
1 7 32.6
1 8 12.7
1 9 56.7
1 10 61.1
1 11 37.5
1 12 29.1
1 13 17.6
1 14 38.4
1 15 31.9
1 16 9.3
1 17 55.5
1 18 51.1
1 19 61.9
2 3 74.5
2 4 72.7
2 5 58.5
2 6 24.1
2 7 44.3
2 8 36.4
2 9 70.1
2 10 78.0
2 11 35.7
2 12 33.9
2 13 6.4
2 14 61.3
2 15 55.6
2 16 27.3
2 17 52.1
2 18 74.7
2 19 68.9
3 4 8.7
3 5 22.1
3 6 57.1
3 7 32.3
3 8 47.3
3 9 16.8
3 10 6.1
3 11 52.8
3 12 45.2
3 13 68.8
3 14 28.9
3 15 39.6
3 16 48.7
3 17 57.9
3 18 35.8
3 19 35.8
4 5 16.1
4 6 57.7
4 7 28.8
4 8 49.3
4 9 8.2
4 10 6.5
4 11 47.5
4 12 41.3
4 13 67.3
4 14 34.8
4 15 44.7
4 16 48.4
4 17 50.7
4 18 43.6
4 19 27.3
5 6 46.9
5 7 14.4
5 8 41.4
5 9 11.5
5 10 22.5
5 11 31.4
5 12 25.7
5 13 53.7
5 14 36.3
5 15 43.4
5 16 36.8
5 17 36.1
5 18 49.1
5 19 19.8
6 7 33.5
6 8 12.6
6 9 57.5
6 10 61.8
6 11 38.5
6 12 30.1
6 13 17.9
6 14 38.5
6 15 31.7
6 16 10.2
6 17 56.5
6 18 51.0
6 19 62.9
7 8 30.2
7 9 25.8
7 10 34.7
7 11 21.8
7 12 12.9
7 13 39.3
7 14 34.3
7 15 37.9
7 16 23.2
7 17 33.3
7 18 49.1
7 19 29.7
8 9 50.7
8 10 52.5
8 11 42.3
8 12 32.0
8 13 30.1
8 14 26.0
8 15 19.2
8 16 12.7
8 17 59.3
8 18 38.4
8 19 59.6
9 10 14.2
9 11 41.9
9 12 37.1
9 13 65.1
9 14 40.1
9 15 49.1
9 16 47.7
9 17 43.2
9 18 50.4
9 19 19.1
10 11 53.9
10 12 47.3
10 13 72.5
10 14 35.0
10 15 45.6
10 16 52.9
10 17 57.1
10 18 41.6
10 19 32.9
11 12 10.9
11 13 33.6
11 14 54.9
11 15 56.0
11 16 30.3
11 17 18.1
11 18 69.9
11 19 34.8
12 13 30.0
12 14 44.2
12 15 45.1
12 16 20.8
12 17 27.3
12 18 59.3
12 19 35.3
13 14 54.9
13 15 49.3
13 16 21.0
13 17 50.9
13 18 68.3
13 19 65.3
14 15 11.1
14 16 34.3
14 17 67.6
14 18 15.1
14 19 56.0
15 16 30.4
15 17 70.8
15 18 19.5
15 19 63.2
16 17 47.9
16 18 48.4
16 19 52.6
17 18 82.1
17 19 28.5
18 19 68.0
